<?xml version = "1.0" standalone="yes"?>
<!-- This file has been generated by DOcplex version 2.23.222  -->
<CPLEXSolution version="1.0">
 <header
   problemName="CVRP"
   objectiveValue="11971"
  />
 <variables>
  <variable name="x_0_1" index="0" value="1.00000"/>
  <variable name="x_0_3" index="2" value="1.00000"/>
  <variable name="x_0_7" index="6" value="1.00000"/>
  <variable name="x_0_10" index="9" value="1.00000"/>
  <variable name="x_0_11" index="10" value="1.00000"/>
  <variable name="x_0_12" index="11" value="1.00000"/>
  <variable name="x_0_14" index="13" value="1.00000"/>
  <variable name="x_0_16" index="15" value="1.00000"/>
  <variable name="x_0_20" index="19" value="1.00000"/>
  <variable name="x_1_15" index="34" value="1.00000"/>
  <variable name="x_2_19" index="58" value="1.00000"/>
  <variable name="x_3_0" index="60" value="1.00000"/>
  <variable name="x_4_18" index="97" value="1.00000"/>
  <variable name="x_5_9" index="108" value="1.00000"/>
  <variable name="x_6_0" index="120" value="1.00000"/>
  <variable name="x_7_8" index="147" value="1.00000"/>
  <variable name="x_8_6" index="166" value="1.00000"/>
  <variable name="x_9_0" index="180" value="1.00000"/>
  <variable name="x_10_0" index="200" value="1.00000"/>
  <variable name="x_11_17" index="236" value="1.00000"/>
  <variable name="x_12_0" index="240" value="1.00000"/>
  <variable name="x_13_4" index="264" value="1.00000"/>
  <variable name="x_14_2" index="282" value="1.00000"/>
  <variable name="x_15_0" index="300" value="1.00000"/>
  <variable name="x_16_0" index="320" value="1.00000"/>
  <variable name="x_17_5" index="345" value="1.00000"/>
  <variable name="x_18_0" index="360" value="1.00000"/>
  <variable name="x_19_13" index="393" value="1.00000"/>
  <variable name="x_20_0" index="400" value="1.00000"/>
  <variable name="u_1" index="420" value="53.00000"/>
  <variable name="u_2" index="421" value="35.00000"/>
  <variable name="u_3" index="422" value="76.00000"/>
  <variable name="u_4" index="423" value="54.00000"/>
  <variable name="u_5" index="424" value="68.00000"/>
  <variable name="u_6" index="425" value="76.00000"/>
  <variable name="u_7" index="426" value="39.00000"/>
  <variable name="u_8" index="427" value="73.00000"/>
  <variable name="u_9" index="428" value="76.00000"/>
  <variable name="u_10" index="429" value="62.00000"/>
  <variable name="u_11" index="430" value="36.00000"/>
  <variable name="u_12" index="431" value="76.00000"/>
  <variable name="u_13" index="432" value="50.00000"/>
  <variable name="u_14" index="433" value="21.00000"/>
  <variable name="u_15" index="434" value="61.00000"/>
  <variable name="u_16" index="435" value="71.00000"/>
  <variable name="u_17" index="436" value="57.00000"/>
  <variable name="u_18" index="437" value="76.00000"/>
  <variable name="u_19" index="438" value="41.00000"/>
  <variable name="u_20" index="439" value="69.00000"/>
 </variables>
</CPLEXSolution>
